c 
p cnf 10 40
6 1 -2 0
-5 -2 7 0
-5 -7 -3 0
-3 -10 -7 0
3 2 4 0
-2 1 8 0
-9 6 7 0
-9 -2 -6 0
-3 -4 10 0
7 -3 -2 0
-2 -7 6 0
-9 -2 6 0
3 9 -5 0
-10 8 9 0
-10 7 9 0
9 7 -3 0
8 -9 -5 0
-4 1 -7 0
2 5 -1 0
7 -9 -1 0
2 5 -6 0
-1 2 -7 0
-9 -5 -6 0
8 -1 10 0
-8 -4 9 0
-10 -9 -4 0
4 -7 1 0
-6 -3 7 0
-5 7 1 0
-2 5 -8 0
-8 -3 6 0
2 7 -8 0
-10 -2 8 0
3 5 -1 0
8 9 -10 0
-2 -1 9 0
-8 -10 9 0
-3 9 2 0
9 -1 -7 0
-8 10 -5 0
